(set-info :smt-lib-version 2.6)
(set-logic QF_UFLRA)
(set-info :source |
MathSat group

|)
(set-info :category "random")
(set-info :status unsat)
(declare-fun x0 () Real)
(declare-fun x1 () Real)
(declare-fun x2 () Real)
(declare-fun x3 () Real)
(declare-fun x4 () Real)
(declare-fun x5 () Real)
(declare-fun x6 () Real)
(declare-fun x7 () Real)
(declare-fun x8 () Real)
(declare-fun x9 () Real)
(declare-fun x10 () Real)
(declare-fun x11 () Real)
(declare-fun x12 () Real)
(declare-fun x13 () Real)
(declare-fun x14 () Real)
(declare-fun x15 () Real)
(declare-fun x16 () Real)
(declare-fun x17 () Real)
(declare-fun x18 () Real)
(declare-fun x19 () Real)
(declare-fun x20 () Real)
(declare-fun x21 () Real)
(declare-fun x22 () Real)
(declare-fun x23 () Real)
(declare-fun x24 () Real)
(declare-fun x25 () Real)
(declare-fun x26 () Real)
(declare-fun x27 () Real)
(declare-fun x28 () Real)
(declare-fun x29 () Real)
(declare-fun f0_1 (Real) Real)
(declare-fun f0_2 (Real Real) Real)
(declare-fun f0_3 (Real Real Real) Real)
(declare-fun f0_4 (Real Real Real Real) Real)
(declare-fun P0 () Bool)
(declare-fun P1 () Bool)
(declare-fun P2 () Bool)
(declare-fun P3 () Bool)
(declare-fun P4 () Bool)
(declare-fun P5 () Bool)
(declare-fun P6 () Bool)
(declare-fun P7 () Bool)
(declare-fun P8 () Bool)
(declare-fun P9 () Bool)
(declare-fun P10 () Bool)
(declare-fun P11 () Bool)
(declare-fun P12 () Bool)
(declare-fun P13 () Bool)
(declare-fun P14 () Bool)
(declare-fun P15 () Bool)
(declare-fun P16 () Bool)
(declare-fun P17 () Bool)
(declare-fun P18 () Bool)
(declare-fun P19 () Bool)
(declare-fun P20 () Bool)
(declare-fun P21 () Bool)
(declare-fun P22 () Bool)
(declare-fun P23 () Bool)
(declare-fun P24 () Bool)
(declare-fun P25 () Bool)
(declare-fun P26 () Bool)
(declare-fun P27 () Bool)
(declare-fun P28 () Bool)
(declare-fun P29 () Bool)
(assert (let ((?v_30 (* 32 x1)) (?v_11 (distinct (- (- (* 7 x10) (* 16 x24)) (* 16 x22)) 22)) (?v_48 (< (+ (- (* 12 x0) (* 5 x27)) (* 27 x20)) 43)) (?v_35 (< (- (+ (* 3 x9) (* 13 x7)) (* 36 x12)) 44)) (?v_108 (< (+ (- (* 8 x1) (* 5 x12)) (* 24 x18)) 19)) (?v_116 (distinct (f0_2 x7 x6) x15)) (?v_132 (distinct (f0_1 x16) (f0_2 x7 x10))) (?v_8 (distinct (f0_1 x1) (f0_2 x2 x1))) (?v_100 (distinct x7 (f0_1 x26))) (?v_78 (= (f0_2 x7 x2) x22)) (?v_49 (= (f0_1 x24) x5)) (?v_26 (distinct (f0_2 x16 x12) (f0_1 x14))) (?v_73 (distinct x8 x27)) (?v_18 (distinct x28 (f0_1 x10))) (?v_85 (distinct (f0_1 x25) (f0_2 x21 x25))) (?v_7 (= (f0_1 x23) (f0_2 x16 x3))) (?v_54 (= (f0_1 x11) (f0_2 x7 x11))) (?v_113 (distinct (f0_2 x18 x0) (f0_1 x5))) (?v_34 (distinct x27 x0)) (?v_28 (= (f0_2 x22 x12) (f0_2 x21 x17))) (?v_36 (distinct x28 x14)) (?v_15 (distinct (f0_2 x14 x14) x1)) (?v_41 (distinct x19 x2)) (?v_101 (distinct (f0_2 x8 x11) x14)) (?v_0 (distinct (f0_2 x11 x21) (f0_2 x26 x27))) (?v_9 (f0_1 x18))) (let ((?v_61 (= ?v_9 (f0_2 x27 x13))) (?v_70 (= (f0_2 x27 x3) ?v_9)) (?v_153 (distinct x25 (f0_2 x6 x29))) (?v_122 (= x29 (f0_1 x17))) (?v_112 (= (f0_1 x13) (f0_2 x20 x16))) (?v_115 (= (f0_2 x7 x28) (f0_2 x5 x28))) (?v_21 (distinct (f0_1 x19) x18)) (?v_31 (distinct (f0_2 x2 x29) (f0_2 x20 x8))) (?v_12 (= (f0_2 x12 x28) x18)) (?v_91 (distinct x13 x25)) (?v_2 (not P25))) (let ((?v_134 (or ?v_15 ?v_2)) (?v_1 (not ?v_0)) (?v_3 (not ?v_85)) (?v_5 (not ?v_12)) (?v_55 (not ?v_48)) (?v_42 (not ?v_8)) (?v_135 (not P15)) (?v_24 (not ?v_70)) (?v_58 (not P18)) (?v_51 (not ?v_108)) (?v_97 (not P3)) (?v_68 (not ?v_34)) (?v_13 (not ?v_21)) (?v_20 (not ?v_15)) (?v_147 (not P13)) (?v_62 (not P7)) (?v_45 (not ?v_112)) (?v_139 (not P16)) (?v_47 (not ?v_36)) (?v_53 (not P2)) (?v_66 (not P19)) (?v_29 (not ?v_28)) (?v_107 (not ?v_153)) (?v_104 (not ?v_78)) (?v_52 (not ?v_31)) (?v_84 (not P8)) (?v_137 (not P9)) (?v_111 (not P4)) (?v_57 (not ?v_35)) (?v_39 (not ?v_73)) (?v_144 (not P14)) (?v_67 (not ?v_41)) (?v_150 (not P27)) (?v_80 (not P20)) (?v_72 (not ?v_49)) (?v_98 (not ?v_18)) (?v_75 (not P26)) (?v_127 (not ?v_132)) (?v_129 (not ?v_54)) (?v_92 (not ?v_26)) (?v_64 (not P12)) (?v_82 (not P5)) (?v_63 (not ?v_61))) (let ((?v_154 (or ?v_63 ?v_100)) (?v_79 (not P29)) (?v_71 (not ?v_7)) (?v_90 (not P10)) (?v_77 (not P23)) (?v_120 (not P11)) (?v_118 (not P22)) (?v_102 (not ?v_91)) (?v_148 (not P28)) (?v_99 (not P21)) (?v_145 (not ?v_100)) (?v_138 (not P1)) (?v_119 (not P24)) (?v_106 (not ?v_101)) (?v_143 (not P17)) (?v_130 (not ?v_113)) (?v_121 (not ?v_116)) (?v_133 (not ?v_122)) (?v_146 (not ?v_115)) (?v_142 (not ?v_11)) (?v_140 (not P6)) (?v_149 (not P0)) (?v_152 (or ?v_20 ?v_64)) (?v_155 (or P23 ?v_91)) (?v_43 (<= (+ (* 4 x21) (* 19 x8) (* 17 x12)) 26))) (let ((?v_16 (not ?v_43)) (?v_69 (<= (+ (- 0 (* 22 x29)) (* 20 x29)) 41))) (let ((?v_105 (not ?v_69)) (?v_27 (<= (+ (* 17 x24) (* 13 x21) (* 27 x11)) (- 39)))) (let ((?v_14 (not ?v_27)) (?v_6 (<= (+ (- (* (- 32) x17) (* 13 x17)) (* 5 x20)) (- 3))) (?v_10 (< (- (- (* 6 x26) (* 20 x8)) (* 32 x5)) (- 10)))) (let ((?v_93 (not ?v_10)) (?v_4 (< (- (- (* 37 x26) (* 41 x13)) (* 23 x20)) (- 30)))) (let ((?v_86 (not ?v_4)) (?v_125 (distinct (+ (* (- 26) x13) (* 33 x20) (* 32 x7)) (- 20)))) (let ((?v_117 (not ?v_125)) (?v_110 (not ?v_6)) (?v_128 (<= (- (+ (* (- 20) x6) (* 25 x18)) (* 5 x4)) 42))) (let ((?v_46 (not ?v_128)) (?v_17 (< (+ (* (- 3) x11) (* 36 x18) (* 17 x23)) 42))) (let ((?v_32 (not ?v_17)) (?v_50 (< (+ (* (- 15) x5) (* 9 x8) (* 13 x4)) 24))) (let ((?v_22 (not ?v_50)) (?v_19 (< (+ (- (* (- 10) x6) (* 23 x18)) (* 14 x28)) (- 12)))) (let ((?v_123 (not ?v_19)) (?v_88 (distinct (+ (* (- 25) x24) (* 22 x13) (* 24 x20)) (- 38)))) (let ((?v_25 (not ?v_88)) (?v_40 (< (+ (- (* 9 x5) (* 23 x11)) (* 15 x20)) (- 5)))) (let ((?v_96 (not ?v_40)) (?v_76 (< (- (+ (* 20 x20) (* 15 x4)) (* 12 x27)) (- 41)))) (let ((?v_59 (not ?v_76)) (?v_23 (< (- (- (* (- 38) x1) (* 34 x17)) (* 31 x14)) (- 41))) (?v_44 (= (+ (- (* (- 10) x0) (* 27 x14)) ?v_30) (- 6)))) (let ((?v_38 (not ?v_44)) (?v_65 (not ?v_23)) (?v_74 (= (- (- (* 41 x1) (* 37 x6)) ?v_30) (- 36)))) (let ((?v_60 (not ?v_74)) (?v_33 (<= (+ (* (- 19) x22) (* 22 x14) (* 9 x21)) (- 41))) (?v_94 (< (+ (* (- 32) x3) (* 7 x6) (* 12 x19)) (- 37)))) (let ((?v_89 (not ?v_33)) (?v_37 (<= (- (+ (* 21 x1) (* 39 x14)) (* 23 x28)) (- 10)))) (let ((?v_136 (not ?v_37)) (?v_83 (<= (- (- (* (- 39) x17) (* 31 x25)) 0) 29)) (?v_95 (= (+ (* (- 11) x29) (* 28 x4) x22) (- 40)))) (let ((?v_56 (not ?v_95)) (?v_87 (distinct (+ (- (* (- 8) x15) (* 5 x2)) (* 40 x18)) (- 23))) (?v_103 (<= (+ (* (- 11) x25) (* 18 x18) (* 17 x17)) 31))) (let ((?v_81 (not ?v_103)) (?v_109 (not ?v_94)) (?v_114 (< (+ (* (- 30) x13) (* 24 x5) (* 31 x1)) (- 27)))) (let ((?v_124 (not ?v_114)) (?v_131 (not ?v_83)) (?v_126 (not ?v_87)) (?v_141 (= (- (- (* (- 26) x3) (* 34 x2)) (* 20 x24)) 13))) (let ((?v_151 (not ?v_141))) (and (and (and (and (and (and (and (and (and (and (and (and (and (and (and (and (and (and (and (and (and (and (and (and (and (and (and (and (and (and (and (and (and (and (and (and (and (and (and (and (and (and (and (and (and (and (and (and (and (and (and (and (and (and (and (and (and (and (and (and (and (and (and (and (and (and (and (and (and (and (and (and (and (and (and (and (and (and (and (and (and (and (and (and (and (and (and (and (and (and (and (and (and (and (and (and (and (and (and (and (and (and (and (and (and (and (and (and (and (and (and (and (and (and (and (and (and (and (and (and (and (and (and (and (and (and (and (and (and (and (and (and (and (and (and (and (and (and (and (and (and (and (and (and (and (and (and (and (and (and (and (and (and (and (and (and (and (and (and (and (and (and (and (and (and (and (and (and (and (and (and (and (and (and (and (and (and (and (and (and (and (and (and (and (and (and (and (and (and (and (and (and (and (and (and (and (and (and (and (and (and (and (and (and (and (and (and (and (and (and (and (and (and (and (and (and (and (and (and (and (and (and (and (and (and (and (and (and (and (and (and (and (and (and (and (and (and (and (and (and (and (and (and (and (and (and (and (and (and (and (and (and (and (and (and (and (and (and (and (and (and (and (and (and (and (and (and (and (and (and (and (and (and (and (and (and (and (and (and (and (and (and (and (and (and (and (and (and (and (and (and (and (and (and (and (and (and (and (and (and (and (and (and (and (and (and (and (and (and (and (and (and (and (and (and (and (and (and (and (and (and (and (and (and (and (and (and (and (and (and (and (and (and (and (and (and (and (and (and (and (and (and (and (and (and (and (and (and (and (and (and (and (and (and (and (and (and (and (and (and (and (and (and (and (and (and (and (and (and (and (and (and (and (and (and (and (and (and (and (and (and (and (and (and (and (and (and (and (and (and (and (and (and (and (and (and (and (and (and (and (and (and (and (and (and (and (and (and (and (and (and (and (and (and (and (and (and (and (and (and (and (and (and (and (and (and (and (and (and (and (and (and (and (and (and (and (and (and (and (and (and (and (and (and (and (and (and (and (and (or (or ?v_18 P22) ?v_0) (or ?v_134 ?v_1)) (or (or ?v_14 P15) ?v_1)) (or (or ?v_35 ?v_61) ?v_6)) (or (or ?v_2 ?v_49) P18)) (or (or ?v_93 ?v_3) ?v_11)) (or (or P10 ?v_86) P7)) (or (or P20 ?v_3) ?v_4)) (or (or ?v_5 ?v_5) ?v_7)) (or (or P25 ?v_117) ?v_115)) (or (or ?v_5 ?v_110) ?v_55)) (or (or ?v_46 ?v_32) ?v_8)) (or (or ?v_7 ?v_42) P19)) (or (or ?v_135 ?v_116) ?v_5)) (or (or ?v_24 ?v_10) P11)) (or (or ?v_58 ?v_11) ?v_51)) (or (or ?v_97 ?v_68) ?v_22)) (or (or P25 P9) ?v_13)) (or (or ?v_123 P6) ?v_1)) (or (or ?v_16 ?v_25) ?v_12)) (or (or ?v_13 P1) ?v_14)) (or (or ?v_96 P13) ?v_20)) (or (or ?v_147 ?v_59) P16)) (or (or ?v_16 ?v_26) ?v_17)) (or (or ?v_62 ?v_23) ?v_101)) (or (or ?v_38 ?v_18) P14)) (or (or ?v_19 ?v_5) ?v_20)) (or (or ?v_45 ?v_139) ?v_4)) (or (or ?v_21 ?v_22) P29)) (or (or ?v_47 ?v_53) ?v_65)) (or (or ?v_66 P3) P10)) (or (or ?v_24 ?v_29) ?v_107)) (or (or ?v_25 P12) ?v_4)) (or (or ?v_26 ?v_27) ?v_104)) (or (or ?v_26 ?v_52) ?v_54)) (or (or ?v_28 ?v_29) P23)) (or (or ?v_60 ?v_31) ?v_33)) (or (or ?v_94 ?v_32) ?v_89)) (or (or ?v_84 ?v_34) ?v_137)) (or (or ?v_136 P12) ?v_14)) (or (or ?v_122 ?v_111) ?v_57)) (or (or ?v_32 P12) ?v_36)) (or (or ?v_83 ?v_7) ?v_39)) (or (or P1 ?v_144) P8)) (or (or ?v_28 ?v_37) ?v_38)) (or (or ?v_67 ?v_150) P8)) (or (or ?v_39 P17) ?v_40)) (or (or ?v_15 ?v_41) ?v_36)) (or (or ?v_42 ?v_43) ?v_44)) (or (or ?v_45 ?v_80) P19)) (or (or ?v_46 ?v_47) ?v_29)) (or (or P11 ?v_48) ?v_72)) (or (or ?v_56 ?v_31) ?v_41)) (or (or ?v_8 ?v_98) ?v_50)) (or (or ?v_51 ?v_75) ?v_44)) (or (or ?v_87 ?v_52) ?v_113)) (or (or P29 ?v_127) ?v_42)) (or (or ?v_20 ?v_32) ?v_53)) (or (or P26 ?v_32) ?v_129)) (or (or ?v_1 ?v_28) ?v_55)) (or (or ?v_56 ?v_92) ?v_5)) (or (or ?v_64 ?v_24) ?v_57)) (or (or ?v_58 ?v_14) ?v_35)) (or (or ?v_25 ?v_82) P14)) (or (or ?v_59 P6) ?v_91)) (or (or ?v_37 ?v_54) ?v_60)) (or (or ?v_7 ?v_69) ?v_52)) (or ?v_154 P22)) (or (or ?v_62 P23) P24)) (or (or ?v_12 ?v_50) ?v_62)) (or (or ?v_51 ?v_79) P4)) (or (or ?v_63 ?v_81) ?v_71)) (or (or ?v_17 P13) ?v_64)) (or (or P26 ?v_90) ?v_33)) (or (or P14 P9) ?v_65)) (or (or ?v_66 ?v_67) ?v_42)) (or (or P23 ?v_44) ?v_68)) (or (or ?v_45 P13) ?v_105)) (or (or ?v_77 ?v_25) ?v_120)) (or (or ?v_19 ?v_70) P16)) (or (or ?v_71 P21) ?v_27)) (or (or ?v_72 ?v_73) ?v_74)) (or (or P2 ?v_75) ?v_41)) (or (or ?v_62 ?v_76) ?v_77)) (or (or ?v_78 ?v_79) ?v_66)) (or (or ?v_80 ?v_81) ?v_32)) (or (or ?v_82 ?v_83) ?v_68)) (or (or ?v_84 ?v_67) ?v_14)) (or (or ?v_34 ?v_55) ?v_85)) (or (or ?v_21 ?v_86) ?v_85)) (or (or ?v_5 ?v_87) ?v_18)) (or (or P10 ?v_60) ?v_88)) (or (or ?v_49 ?v_118) ?v_89)) (or (or P18 ?v_90) ?v_12)) (or (or ?v_102 ?v_27) ?v_92)) (or (or ?v_18 ?v_51) ?v_66)) (or (or ?v_27 ?v_148) P16)) (or (or ?v_93 P6) P16)) (or (or ?v_82 ?v_40) ?v_31)) (or (or ?v_53 ?v_109) ?v_72)) (or (or ?v_35 ?v_114) ?v_50)) (or (or ?v_95 ?v_96) ?v_99)) (or (or ?v_56 ?v_97) ?v_98)) (or (or ?v_85 ?v_37) ?v_58)) (or (or ?v_70 ?v_36) ?v_44)) (or (or ?v_63 P25) P18)) (or (or ?v_21 ?v_99) ?v_62)) (or (or ?v_145 P27) ?v_7)) (or (or ?v_98 ?v_138) P9)) (or (or ?v_78 ?v_60) ?v_119)) (or (or ?v_94 ?v_16) P9)) (or (or ?v_73 ?v_46) ?v_25)) (or (or ?v_43 ?v_106) ?v_88)) (or (or ?v_33 ?v_35) ?v_95)) (or (or ?v_53 ?v_102) ?v_14)) (or (or ?v_76 ?v_34) ?v_40)) (or (or ?v_5 ?v_57) ?v_103)) (or (or P21 ?v_27) P28)) (or (or ?v_34 ?v_25) ?v_51)) (or (or ?v_14 ?v_100) ?v_93)) (or (or ?v_104 ?v_143) ?v_7)) (or (or ?v_59 ?v_32) P12)) (or (or ?v_105 P25) ?v_87)) (or (or ?v_57 ?v_106) ?v_3)) (or (or ?v_107 ?v_74) P17)) (or (or ?v_35 P22) P10)) (or (or ?v_102 ?v_4) ?v_108)) (or (or ?v_93 ?v_4) ?v_98)) (or (or P27 ?v_29) P8)) (or (or ?v_29 ?v_46) ?v_79)) (or (or ?v_109 ?v_69) P21)) (or (or ?v_40 P14) ?v_110)) (or (or ?v_111 ?v_112) ?v_2)) (or (or ?v_88 ?v_46) ?v_23)) (or (or ?v_34 ?v_130) ?v_66)) (or (or ?v_124 ?v_95) ?v_115)) (or (or ?v_29 P18) ?v_17)) (or (or ?v_110 ?v_88) ?v_113)) (or (or ?v_83 ?v_109) ?v_96)) (or (or P2 ?v_17) ?v_35)) (or (or ?v_66 ?v_59) ?v_40)) (or (or ?v_121 ?v_117) ?v_84)) (or (or ?v_118 P20) ?v_131)) (or (or ?v_111 ?v_119) ?v_35)) (or (or ?v_120 ?v_28) ?v_100)) (or (or ?v_93 ?v_10) P28)) (or (or P22 ?v_121) ?v_67)) (or (or ?v_133 ?v_68) ?v_98)) (or (or ?v_123 ?v_90) ?v_79)) (or (or ?v_146 P26) ?v_39)) (or (or ?v_1 ?v_124) ?v_46)) (or (or P2 ?v_59) ?v_39)) (or (or ?v_124 ?v_126) ?v_125)) (or (or ?v_100 ?v_95) ?v_123)) (or (or P5 ?v_27) P3)) (or (or ?v_126 ?v_103) ?v_127)) (or (or ?v_53 ?v_56) P4)) (or (or P9 ?v_98) ?v_94)) (or (or ?v_128 P17) ?v_111)) (or (or P6 P21) P10)) (or (or ?v_4 ?v_142) ?v_52)) (or (or ?v_76 ?v_7) ?v_53)) (or (or P16 ?v_29) ?v_61)) (or (or ?v_140 ?v_1) ?v_23)) (or (or ?v_100 ?v_129) ?v_141)) (or (or ?v_130 ?v_62) ?v_12)) (or (or ?v_99 ?v_24) P20)) (or (or ?v_131 ?v_53) ?v_2)) (or (or ?v_69 P13) ?v_87)) (or (or ?v_50 P21) ?v_66)) (or (or ?v_68 ?v_132) P19)) (or (or ?v_44 ?v_42) P8)) (or (or P11 ?v_56) ?v_54)) (or (or ?v_11 ?v_101) ?v_73)) (or (or P0 ?v_73) ?v_76)) (or (or ?v_133 ?v_35) ?v_129)) (or (or ?v_43 ?v_5) P6)) (or (or ?v_122 ?v_91) ?v_82)) (or ?v_134 P21)) (or (or ?v_77 ?v_45) ?v_15)) (or (or ?v_32 ?v_78) ?v_117)) (or (or ?v_75 ?v_73) ?v_107)) (or (or ?v_68 P27) ?v_22)) (or (or ?v_72 ?v_97) ?v_135)) (or (or ?v_23 ?v_27) P4)) (or (or ?v_85 ?v_11) ?v_92)) (or (or P10 ?v_67) ?v_13)) (or (or ?v_92 ?v_77) P11)) (or (or ?v_113 ?v_136) ?v_6)) (or (or ?v_137 ?v_33) ?v_133)) (or (or ?v_61 P24) ?v_47)) (or (or ?v_138 ?v_69) ?v_95)) (or (or ?v_63 ?v_53) ?v_62)) (or (or P3 ?v_63) P1)) (or (or P2 ?v_83) ?v_117)) (or (or ?v_62 ?v_87) ?v_139)) (or (or P24 ?v_46) ?v_124)) (or (or ?v_73 ?v_85) ?v_87)) (or (or ?v_7 ?v_92) ?v_64)) (or (or ?v_19 ?v_3) ?v_22)) (or (or ?v_44 ?v_113) ?v_111)) (or (or ?v_22 ?v_36) ?v_33)) (or (or ?v_77 P26) P7)) (or (or ?v_55 ?v_13) ?v_69)) (or (or ?v_4 ?v_44) ?v_149)) (or (or ?v_104 ?v_91) P16)) (or (or ?v_28 ?v_51) ?v_13)) (or (or ?v_4 P5) ?v_12)) (or (or ?v_58 P25) ?v_92)) (or (or ?v_75 ?v_11) ?v_70)) (or (or ?v_41 P1) ?v_109)) (or (or ?v_120 P25) ?v_88)) (or (or P9 ?v_93) ?v_103)) (or (or ?v_140 ?v_120) ?v_8)) (or (or P18 ?v_122) ?v_114)) (or (or P23 P18) ?v_55)) (or (or ?v_84 ?v_100) ?v_42)) (or (or ?v_67 ?v_66) ?v_123)) (or (or P17 ?v_0) ?v_71)) (or (or P24 ?v_91) ?v_67)) (or (or ?v_102 P26) ?v_73)) (or (or ?v_38 ?v_64) ?v_25)) (or (or P9 ?v_118) ?v_10)) (or (or P9 ?v_15) ?v_84)) (or (or ?v_47 ?v_57) ?v_136)) (or (or ?v_121 ?v_105) ?v_52)) (or (or ?v_83 ?v_80) ?v_12)) (or (or P7 ?v_62) ?v_74)) (or (or ?v_76 P12) ?v_38)) (or (or P11 P8) ?v_32)) (or (or ?v_140 ?v_95) ?v_83)) (or (or ?v_129 ?v_122) ?v_113)) (or (or ?v_56 ?v_3) ?v_5)) (or (or P25 P11) ?v_127)) (or (or ?v_32 ?v_88) ?v_59)) (or (or ?v_110 ?v_141) ?v_93)) (or (or ?v_72 ?v_142) ?v_19)) (or (or ?v_33 ?v_23) ?v_79)) (or (or ?v_79 P7) ?v_106)) (or (or P3 ?v_17) ?v_61)) (or (or ?v_114 ?v_39) ?v_86)) (or (or ?v_125 P21) P29)) (or (or ?v_117 ?v_96) ?v_36)) (or (or ?v_23 ?v_140) ?v_31)) (or (or ?v_143 ?v_18) ?v_101)) (or (or ?v_94 ?v_28) ?v_57)) (or (or ?v_38 ?v_5) ?v_135)) (or (or ?v_72 ?v_1) ?v_118)) (or (or ?v_79 ?v_59) ?v_114)) (or (or ?v_47 ?v_14) ?v_118)) (or (or ?v_89 P3) ?v_73)) (or (or ?v_88 ?v_6) ?v_92)) (or (or ?v_109 ?v_104) ?v_90)) (or (or ?v_144 ?v_22) ?v_52)) (or (or ?v_122 ?v_121) ?v_115)) (or (or ?v_137 P29) ?v_125)) (or (or ?v_19 ?v_55) ?v_31)) (or (or P11 ?v_138) ?v_112)) (or (or ?v_50 ?v_145) ?v_60)) (or (or P28 P26) P4)) (or (or P4 ?v_139) ?v_95)) (or (or ?v_36 ?v_6) ?v_57)) (or (or ?v_125 ?v_120) ?v_138)) (or (or ?v_125 ?v_138) ?v_146)) (or (or ?v_48 ?v_128) ?v_1)) (or (or ?v_3 ?v_35) ?v_147)) (or (or ?v_100 ?v_34) ?v_4)) (or (or ?v_143 ?v_148) ?v_124)) (or (or ?v_148 ?v_33) ?v_151)) (or (or ?v_149 ?v_19) P28)) (or (or ?v_77 ?v_127) ?v_104)) (or (or ?v_96 ?v_84) ?v_46)) (or (or ?v_91 ?v_137) ?v_117)) (or (or P13 P22) ?v_130)) (or (or ?v_147 ?v_70) ?v_69)) (or (or ?v_131 ?v_129) ?v_138)) (or (or P7 P29) ?v_47)) (or (or ?v_114 ?v_55) ?v_126)) (or (or P22 ?v_6) ?v_4)) (or (or P12 ?v_95) ?v_131)) (or (or ?v_22 ?v_72) P10)) (or (or ?v_140 ?v_118) ?v_22)) (or (or ?v_65 ?v_4) ?v_102)) (or (or ?v_107 ?v_52) ?v_33)) (or (or ?v_37 ?v_136) ?v_32)) (or (or ?v_135 ?v_61) ?v_25)) (or (or ?v_65 ?v_119) ?v_146)) (or (or ?v_45 ?v_39) ?v_90)) (or (or ?v_75 ?v_34) ?v_39)) (or (or ?v_68 P12) P5)) (or (or ?v_122 P23) ?v_18)) (or (or P3 ?v_79) P8)) (or (or ?v_95 ?v_145) ?v_25)) (or (or ?v_85 ?v_99) ?v_25)) (or (or ?v_19 ?v_39) ?v_7)) (or (or ?v_66 ?v_107) ?v_86)) (or (or ?v_26 ?v_4) ?v_99)) (or (or ?v_43 ?v_99) ?v_105)) (or (or ?v_8 ?v_49) ?v_90)) (or (or ?v_150 ?v_40) ?v_38)) (or (or ?v_79 ?v_148) ?v_126)) (or (or ?v_91 ?v_18) ?v_55)) (or (or ?v_143 ?v_40) ?v_122)) (or (or ?v_106 ?v_0) ?v_105)) (or (or ?v_35 ?v_62) ?v_31)) (or (or P13 ?v_133) ?v_2)) (or (or ?v_116 ?v_77) ?v_126)) (or (or ?v_28 ?v_43) ?v_85)) (or (or ?v_68 P8) ?v_18)) (or (or ?v_70 ?v_38) ?v_103)) (or (or ?v_18 ?v_13) P26)) (or (or ?v_69 ?v_81) ?v_126)) (or (or ?v_55 ?v_3) P4)) (or (or P28 ?v_34) ?v_99)) (or (or ?v_12 ?v_93) ?v_54)) (or (or P16 P18) ?v_98)) (or (or P1 ?v_151) ?v_13)) (or (or ?v_105 P7) ?v_109)) (or ?v_152 ?v_22)) (or (or ?v_125 ?v_111) ?v_54)) (or (or ?v_43 ?v_4) P1)) (or ?v_155 ?v_106)) (or ?v_152 ?v_123)) (or (or P24 ?v_53) ?v_102)) (or (or ?v_5 ?v_108) ?v_138)) (or (or ?v_116 ?v_123) ?v_146)) (or (or P13 ?v_130) ?v_138)) (or (or P6 ?v_71) ?v_28)) (or (or ?v_84 ?v_40) ?v_118)) (or (or ?v_98 ?v_82) ?v_33)) (or (or ?v_132 ?v_116) ?v_62)) (or (or ?v_59 ?v_85) ?v_100)) (or (or ?v_109 ?v_144) ?v_142)) (or (or ?v_93 ?v_148) ?v_38)) (or (or ?v_75 ?v_107) ?v_83)) (or (or ?v_12 ?v_128) ?v_68)) (or (or ?v_33 ?v_13) ?v_80)) (or (or ?v_67 ?v_103) ?v_120)) (or (or P13 ?v_86) P17)) (or (or ?v_69 ?v_6) P8)) (or (or ?v_15 ?v_130) ?v_55)) (or (or ?v_64 ?v_5) ?v_78)) (or (or ?v_137 ?v_125) ?v_142)) (or (or ?v_25 ?v_92) ?v_55)) (or (or ?v_61 ?v_47) ?v_74)) (or (or ?v_72 ?v_41) ?v_92)) (or (or ?v_104 ?v_65) ?v_35)) (or (or ?v_89 ?v_0) ?v_26)) (or (or P4 P29) P18)) (or (or ?v_93 P22) ?v_20)) (or (or ?v_15 ?v_115) ?v_80)) (or (or ?v_87 ?v_12) P19)) (or (or P19 ?v_150) P22)) (or (or ?v_153 ?v_58) ?v_22)) (or (or P16 ?v_104) P22)) (or (or ?v_15 ?v_39) ?v_24)) (or (or ?v_110 ?v_23) ?v_53)) (or (or ?v_129 ?v_96) ?v_20)) (or (or ?v_57 ?v_128) P13)) (or (or ?v_54 ?v_26) P6)) (or (or ?v_141 ?v_51) ?v_150)) (or (or ?v_100 ?v_86) P13)) (or (or ?v_140 ?v_131) ?v_138)) (or (or ?v_87 ?v_146) ?v_15)) (or (or ?v_91 ?v_112) ?v_137)) (or (or ?v_110 P21) ?v_3)) (or (or ?v_129 ?v_36) ?v_115)) (or (or ?v_38 P8) ?v_77)) (or (or ?v_144 ?v_139) ?v_130)) (or (or ?v_26 ?v_19) ?v_3)) (or (or ?v_106 ?v_85) ?v_74)) (or (or ?v_32 ?v_76) ?v_20)) (or (or P19 ?v_140) ?v_45)) (or (or ?v_51 ?v_18) P12)) (or (or ?v_119 P2) ?v_47)) (or (or ?v_41 ?v_18) ?v_105)) (or (or ?v_140 ?v_146) ?v_125)) (or (or ?v_75 P24) ?v_121)) (or (or ?v_77 ?v_103) ?v_131)) (or (or ?v_107 ?v_24) ?v_114)) (or (or ?v_125 ?v_7) P29)) (or (or P0 ?v_46) ?v_138)) (or (or ?v_150 ?v_22) ?v_47)) (or (or ?v_114 ?v_41) ?v_77)) (or (or ?v_139 ?v_86) ?v_129)) (or (or ?v_137 ?v_14) ?v_51)) (or (or ?v_70 ?v_114) ?v_29)) (or (or ?v_17 ?v_132) P10)) (or (or ?v_93 ?v_138) P23)) (or (or ?v_140 P9) ?v_87)) (or (or ?v_124 ?v_105) ?v_72)) (or (or ?v_87 ?v_113) P10)) (or (or ?v_96 ?v_6) ?v_72)) (or (or P22 ?v_84) ?v_78)) (or (or ?v_104 ?v_84) ?v_62)) (or (or P15 ?v_104) ?v_132)) (or (or ?v_67 ?v_128) ?v_91)) (or (or ?v_29 ?v_88) ?v_84)) (or (or ?v_101 ?v_83) ?v_143)) (or (or P8 ?v_139) ?v_62)) (or (or P25 P16) ?v_40)) (or (or P20 ?v_85) P5)) (or (or ?v_103 ?v_5) ?v_64)) (or (or ?v_79 ?v_27) ?v_141)) (or ?v_154 ?v_8)) (or (or ?v_26 P4) ?v_59)) (or (or ?v_48 ?v_98) ?v_124)) (or (or P10 ?v_93) ?v_127)) (or (or ?v_121 ?v_95) ?v_82)) (or (or ?v_13 ?v_151) ?v_118)) (or (or ?v_27 P8) ?v_45)) (or (or ?v_35 ?v_109) ?v_71)) (or (or ?v_53 ?v_91) ?v_12)) (or (or ?v_28 P15) ?v_122)) (or (or ?v_88 ?v_81) ?v_92)) (or (or ?v_83 ?v_52) ?v_80)) (or (or ?v_62 ?v_15) ?v_86)) (or (or P2 ?v_101) P3)) (or (or ?v_111 ?v_107) ?v_65)) (or (or ?v_81 ?v_79) ?v_28)) (or (or P21 ?v_18) ?v_119)) (or ?v_155 P15)) (or (or ?v_76 ?v_62) ?v_49)) (or (or ?v_34 ?v_84) ?v_129)) (or (or ?v_84 P3) ?v_46)) (or (or ?v_4 ?v_147) P27)) (or (or ?v_29 ?v_79) ?v_24)) (or (or ?v_15 ?v_140) ?v_125)) (or (or ?v_149 P10) ?v_83)) (or (or ?v_18 ?v_43) P18)) (or (or P4 ?v_77) ?v_142)) (or (or ?v_136 ?v_6) ?v_138)) (or (or P24 ?v_19) ?v_7)) (or (or P5 ?v_126) ?v_10)) (or (or ?v_144 ?v_11) ?v_31)) (or (or ?v_66 ?v_70) ?v_132)) (or (or ?v_48 ?v_13) ?v_149)) (or (or ?v_61 ?v_99) P28)) (or (or ?v_151 ?v_126) ?v_148)) (or (or ?v_52 P7) ?v_14)) (or (or ?v_98 ?v_46) ?v_93)) (or (or ?v_67 ?v_3) ?v_43)) (or (or ?v_101 P29) ?v_17)) (or (or ?v_97 P13) ?v_21)) (or (or P20 ?v_44) ?v_77)) (or (or ?v_59 ?v_151) ?v_15)) (or (or ?v_110 ?v_85) P4)) (or (or ?v_73 ?v_140) ?v_87)) (or (or ?v_23 P13) P10)) (or (or ?v_140 ?v_147) P18))))))))))))))))))))))))))))
(check-sat)
(exit)
